131211
[0, 1, 2, 3, 4, 5, 6, 130, 131, 132, 133, 134, 32, 33, 34, 35, 36, 37, 139, 138, 137, 136, 135, 7, 8, 9, 10, 11, 12, 13, 14, 15, 16, 17, 18, 140, 19, 20, 21, 22, 23, 24, 145, 146, 147, 148, 149, 49, 170, 171, 172, 173, 174, 74, 195, 196, 197, 198, 199, 99, 98, 220, 221, 222, 223, 224, 124, 123, 122, 121, 120, 119, 118, 117, 116, 115, 114, 113, 112, 111, 110, 109, 108, 107, 106, 209, 208, 207, 206, 205, 105, 104, 103, 102, 101, 100, 204, 203, 202, 201, 200, 75, 76, 77, 78, 79, 80, 81, 184, 82, 83, 84, 85, 86, 87, 210, 211, 212, 213, 214, 219, 218, 217, 216, 215, 92, 91, 90, 89, 88, 189, 188, 187, 186, 185, 63, 64, 65, 66, 67, 190, 191, 192, 193, 194, 93, 94, 95, 96, 97, 73, 72, 71, 70, 69, 68, 169, 168, 167, 166, 165, 44, 45, 46, 47, 48, 141, 142, 143, 144, 43, 42, 41, 40, 39, 38, 160, 161, 162, 163, 164, 62, 61, 60, 59, 58, 57, 56, 180, 181, 182, 183, 179, 178, 177, 176, 175, 50, 51, 52, 53, 54, 55, 159, 158, 157, 156, 155, 31, 30, 29, 28, 27, 26, 154, 153, 152, 151, 150, 25, 129, 128, 127, 126, 125]
